### Reservoir Initialization
### This simulation involves inserting a set of particles into a cylindrical domain
### allowing them to settle under the force of gravity and saving their state for later runs 


### Variables ----------------------------------------------------------------------------------------

variable youngmod equal 1.0e7
variable poisson equal 0.3
variable crest equal 0.65
variable cfric equal 1
variable rho equal 1260

variable nmaterials equal 2

variable nP equal 20000
variable tStep equal 1.0e-4
variable prate equal 9000
variable tSettle equal ${nP}/${prate}/${tStep}+1/${tStep}

print "tSettle = ${tSettle}"

variable minRad equal 0.01
variable ndist equal 2*${minRad}

variable rcyl equal 0.35
variable zbottom equal -0.5
variable ztop equal 0.6

variable fdump equal 1000


### Initialization -----------------------------------------------------------------------------------

units si
atom_style sphere
atom_modify map array
boundary f f f
newton off
communicate single vel yes

# Declare domain
region domain cylinder z 0 0 ${rcyl} ${zbottom} ${ztop} units box
create_box 2 domain

# Neighbor listing
neighbor ${ndist} bin
neigh_modify every 1 check no delay 0


### Setup -------------------------------------------------------------------------------------------

# Material and interaction properties required
fix m1 all property/global youngsModulus peratomtype ${youngmod} ${youngmod}
fix m2 all property/global poissonsRatio peratomtype ${poisson} ${poisson}
fix m3 all property/global coefficientRestitution peratomtypepair 2 ${crest} ${crest} ${crest} ${crest}
fix m4 all property/global coefficientFriction peratomtypepair 2 ${cfric} 0 0 ${cfric}
fix m5 all property/global cohesionEnergyDensity peratomtypepair 2 100 0 0 100
fix m6 all property/global coefficientRollingFriction peratomtypepair 2 0.04 0.04 0.04 0.04

# Particle insertion

fix pts1 all particletemplate/sphere 49979693 atom_type 1 density constant ${rho} radius constant ${minRad}
fix pts2 all particletemplate/sphere 15485863 atom_type 1 density constant ${rho} radius constant 0.02
fix pts3 all particletemplate/sphere 15485867 atom_type 1 density constant ${rho} radius constant 0.03
fix pts4 all particletemplate/sphere 67867967 atom_type 1 density constant ${rho} radius constant 0.05
fix pdd all particledistribution/discrete 32452843 4 pts1 0.60 pts2 0.25 pts3 0.1 pts4 0.05


region reservoir cylinder z 0 0 ${rcyl} 0 ${ztop} units box

fix ins all insert/rate/region seed 49979687 distributiontemplate pdd &
nparticles ${nP} particlerate ${prate} insert_every 1000 &
overlapcheck yes vel constant 0. 0. 0. region reservoir ntry_mc 10000


# Define the physics
pair_style gran model hertz tangential history cohesion sjkr
pair_coeff * *


### Import CAD / Generate Solids --------------------------------------------------------------------

# Add a granular wall at the floor of the bounding box too
fix zwalls all wall/gran model hertz tangential history primitive type 1 zplane ${zbottom}
fix cylwall all wall/gran model hertz tangential history primitive type 1 zcylinder ${rcyl} 0 0 

### Detailed Settings -------------------------------------------------------------------------------

# Integrator
fix integrator all nve/sphere

# Gravity
fix grav all gravity 9.81 vector 0.0 0.0 -1.0

# Time step
timestep ${tStep}

### Thermodynamic output settings
# none

# Check time step and initialize dump file
fix ctg all check/timestep/gran 1 0.01 0.01
run 1
unfix ctg

# Dump Files for Post-Processing --------------------------------------------------------------------

dump dmp all custom/vtk 1000 postInit/plate_*.vtk id type type x y z ix iy iz vx vy vz fx fy fz omegax omegay omegaz radius 

# Run simulation for N time steps ------------------------------------------------------------------

# Allow Particles to settle
run ${tSettle}

fix mgrav all gravity 9.81e-06 vector 0.0 0.0 -1.0

run 5000

# Save Reservoir for future use

write_restart restart/restart.equil